p cnf 252 1620
1 -157 -121 0
-1 157 -121 0
1 157 -122 0
-1 -157 -122 0
21 -157 -127 0
-21 157 -127 0
21 157 -128 0
-21 -157 -128 0
41 -157 -133 0
-41 157 -133 0
41 157 -134 0
-41 -157 -134 0
61 -157 -139 0
-61 157 -139 0
61 157 -140 0
-61 -157 -140 0
81 -157 -145 0
-81 157 -145 0
81 157 -146 0
-81 -157 -146 0
101 -157 -151 0
-101 157 -151 0
101 157 -152 0
-101 -157 -152 0
2 -121 0
2 -122 0
121 -121 0
122 -122 0
22 -127 0
22 -128 0
127 -127 0
128 -128 0
42 -133 0
42 -134 0
133 -133 0
134 -134 0
62 -139 0
62 -140 0
139 -139 0
140 -140 0
82 -145 0
82 -146 0
145 -145 0
146 -146 0
102 -151 0
102 -152 0
151 -151 0
152 -152 0
3 -121 0
3 -122 0
121 -121 0
122 -122 0
23 -127 0
23 -128 0
127 -127 0
128 -128 0
43 -133 0
43 -134 0
133 -133 0
134 -134 0
63 -139 0
63 -140 0
139 -139 0
140 -140 0
83 -145 0
83 -146 0
145 -145 0
146 -146 0
103 -151 0
103 -152 0
151 -151 0
152 -152 0
4 -121 0
4 -122 0
121 -121 0
122 -122 0
24 -127 0
24 -128 0
127 -127 0
128 -128 0
44 -133 0
44 -134 0
133 -133 0
134 -134 0
64 -139 0
64 -140 0
139 -139 0
140 -140 0
84 -145 0
84 -146 0
145 -145 0
146 -146 0
104 -151 0
104 -152 0
151 -151 0
152 -152 0
5 -121 0
5 -122 0
121 -121 0
122 -122 0
25 -127 0
25 -128 0
127 -127 0
128 -128 0
45 -133 0
45 -134 0
133 -133 0
134 -134 0
65 -139 0
65 -140 0
139 -139 0
140 -140 0
85 -145 0
85 -146 0
145 -145 0
146 -146 0
105 -151 0
105 -152 0
151 -151 0
152 -152 0
6 -121 0
6 -122 0
121 -121 0
122 -122 0
26 -127 0
26 -128 0
127 -127 0
128 -128 0
46 -133 0
46 -134 0
133 -133 0
134 -134 0
66 -139 0
66 -140 0
139 -139 0
140 -140 0
86 -145 0
86 -146 0
145 -145 0
146 -146 0
106 -151 0
106 -152 0
151 -151 0
152 -152 0
7 -121 0
7 -122 0
121 -121 0
122 -122 0
27 -127 0
27 -128 0
127 -127 0
128 -128 0
47 -133 0
47 -134 0
133 -133 0
134 -134 0
67 -139 0
67 -140 0
139 -139 0
140 -140 0
87 -145 0
87 -146 0
145 -145 0
146 -146 0
107 -151 0
107 -152 0
151 -151 0
152 -152 0
8 -121 0
8 -122 0
121 -121 0
122 -122 0
28 -127 0
28 -128 0
127 -127 0
128 -128 0
48 -133 0
48 -134 0
133 -133 0
134 -134 0
68 -139 0
68 -140 0
139 -139 0
140 -140 0
88 -145 0
88 -146 0
145 -145 0
146 -146 0
108 -151 0
108 -152 0
151 -151 0
152 -152 0
9 -121 0
9 -122 0
121 -121 0
122 -122 0
29 -127 0
29 -128 0
127 -127 0
128 -128 0
49 -133 0
49 -134 0
133 -133 0
134 -134 0
69 -139 0
69 -140 0
139 -139 0
140 -140 0
89 -145 0
89 -146 0
145 -145 0
146 -146 0
109 -151 0
109 -152 0
151 -151 0
152 -152 0
10 -121 0
10 -122 0
121 -121 0
122 -122 0
30 -127 0
30 -128 0
127 -127 0
128 -128 0
50 -133 0
50 -134 0
133 -133 0
134 -134 0
70 -139 0
70 -140 0
139 -139 0
140 -140 0
90 -145 0
90 -146 0
145 -145 0
146 -146 0
110 -151 0
110 -152 0
151 -151 0
152 -152 0
11 -121 0
11 -122 0
121 -121 0
122 -122 0
31 -127 0
31 -128 0
127 -127 0
128 -128 0
51 -133 0
51 -134 0
133 -133 0
134 -134 0
71 -139 0
71 -140 0
139 -139 0
140 -140 0
91 -145 0
91 -146 0
145 -145 0
146 -146 0
111 -151 0
111 -152 0
151 -151 0
152 -152 0
12 -121 0
12 -122 0
121 -121 0
122 -122 0
32 -127 0
32 -128 0
127 -127 0
128 -128 0
52 -133 0
52 -134 0
133 -133 0
134 -134 0
72 -139 0
72 -140 0
139 -139 0
140 -140 0
92 -145 0
92 -146 0
145 -145 0
146 -146 0
112 -151 0
112 -152 0
151 -151 0
152 -152 0
13 -158 -121 0
-13 158 -121 0
13 158 -122 0
-13 -158 -122 0
33 -158 -127 0
-33 158 -127 0
33 158 -128 0
-33 -158 -128 0
53 -158 -133 0
-53 158 -133 0
53 158 -134 0
-53 -158 -134 0
73 -158 -139 0
-73 158 -139 0
73 158 -140 0
-73 -158 -140 0
93 -158 -145 0
-93 158 -145 0
93 158 -146 0
-93 -158 -146 0
113 -158 -151 0
-113 158 -151 0
113 158 -152 0
-113 -158 -152 0
14 -121 0
14 -122 0
121 -121 0
122 -122 0
34 -127 0
34 -128 0
127 -127 0
128 -128 0
54 -133 0
54 -134 0
133 -133 0
134 -134 0
74 -139 0
74 -140 0
139 -139 0
140 -140 0
94 -145 0
94 -146 0
145 -145 0
146 -146 0
114 -151 0
114 -152 0
151 -151 0
152 -152 0
15 -121 0
15 -122 0
121 -121 0
122 -122 0
35 -127 0
35 -128 0
127 -127 0
128 -128 0
55 -133 0
55 -134 0
133 -133 0
134 -134 0
75 -139 0
75 -140 0
139 -139 0
140 -140 0
95 -145 0
95 -146 0
145 -145 0
146 -146 0
115 -151 0
115 -152 0
151 -151 0
152 -152 0
16 -121 0
16 -122 0
121 -121 0
122 -122 0
36 -127 0
36 -128 0
127 -127 0
128 -128 0
56 -133 0
56 -134 0
133 -133 0
134 -134 0
76 -139 0
76 -140 0
139 -139 0
140 -140 0
96 -145 0
96 -146 0
145 -145 0
146 -146 0
116 -151 0
116 -152 0
151 -151 0
152 -152 0
17 -159 -121 0
-17 159 -121 0
17 159 -122 0
-17 -159 -122 0
37 -159 -127 0
-37 159 -127 0
37 159 -128 0
-37 -159 -128 0
57 -159 -133 0
-57 159 -133 0
57 159 -134 0
-57 -159 -134 0
77 -159 -139 0
-77 159 -139 0
77 159 -140 0
-77 -159 -140 0
97 -159 -145 0
-97 159 -145 0
97 159 -146 0
-97 -159 -146 0
117 -159 -151 0
-117 159 -151 0
117 159 -152 0
-117 -159 -152 0
18 -160 -121 0
-18 160 -121 0
18 160 -122 0
-18 -160 -122 0
38 -160 -127 0
-38 160 -127 0
38 160 -128 0
-38 -160 -128 0
58 -160 -133 0
-58 160 -133 0
58 160 -134 0
-58 -160 -134 0
78 -160 -139 0
-78 160 -139 0
78 160 -140 0
-78 -160 -140 0
98 -160 -145 0
-98 160 -145 0
98 160 -146 0
-98 -160 -146 0
118 -160 -151 0
-118 160 -151 0
118 160 -152 0
-118 -160 -152 0
19 -121 0
19 -122 0
121 -121 0
122 -122 0
39 -127 0
39 -128 0
127 -127 0
128 -128 0
59 -133 0
59 -134 0
133 -133 0
134 -134 0
79 -139 0
79 -140 0
139 -139 0
140 -140 0
99 -145 0
99 -146 0
145 -145 0
146 -146 0
119 -151 0
119 -152 0
151 -151 0
152 -152 0
-20 -121 0
-20 -122 0
121 -121 0
122 -122 0
-40 -127 0
-40 -128 0
127 -127 0
128 -128 0
-60 -133 0
-60 -134 0
133 -133 0
134 -134 0
-80 -139 0
-80 -140 0
139 -139 0
140 -140 0
-100 -145 0
-100 -146 0
145 -145 0
146 -146 0
-120 -151 0
-120 -152 0
151 -151 0
152 -152 0
-217 121 0
217 -121 0
-218 122 0
217 -122 0
-217 -121 0
-218 -122 0
-223 121 217 0
223 -121 0
223 -217 0
-224 122 218 0
224 -122 0
224 -218 0
-223 -127 0
-224 -128 0
-229 127 223 0
229 -127 0
229 -223 0
-230 128 224 0
230 -128 0
230 -224 0
-229 -133 0
-230 -134 0
-235 133 229 0
235 -133 0
235 -229 0
-236 134 230 0
236 -134 0
236 -230 0
-235 -139 0
-236 -140 0
-241 139 235 0
241 -139 0
241 -235 0
-242 140 236 0
242 -140 0
242 -236 0
-241 -145 0
-242 -146 0
-247 145 241 0
247 -145 0
247 -241 0
-248 146 242 0
248 -146 0
248 -242 0
-247 -151 0
-248 -152 0
247 0
248 0
-1 -123 0
-1 -124 0
123 -123 0
124 -124 0
-21 -129 0
-21 -130 0
129 -129 0
130 -130 0
-41 -135 0
-41 -136 0
135 -135 0
136 -136 0
-61 -141 0
-61 -142 0
141 -141 0
142 -142 0
-81 -147 0
-81 -148 0
147 -147 0
148 -148 0
-101 -153 0
-101 -154 0
153 -153 0
154 -154 0
2 -123 0
2 -124 0
123 -123 0
124 -124 0
22 -129 0
22 -130 0
129 -129 0
130 -130 0
42 -135 0
42 -136 0
135 -135 0
136 -136 0
62 -141 0
62 -142 0
141 -141 0
142 -142 0
82 -147 0
82 -148 0
147 -147 0
148 -148 0
102 -153 0
102 -154 0
153 -153 0
154 -154 0
3 -123 0
3 -124 0
123 -123 0
124 -124 0
23 -129 0
23 -130 0
129 -129 0
130 -130 0
43 -135 0
43 -136 0
135 -135 0
136 -136 0
63 -141 0
63 -142 0
141 -141 0
142 -142 0
83 -147 0
83 -148 0
147 -147 0
148 -148 0
103 -153 0
103 -154 0
153 -153 0
154 -154 0
4 -123 0
4 -124 0
123 -123 0
124 -124 0
24 -129 0
24 -130 0
129 -129 0
130 -130 0
44 -135 0
44 -136 0
135 -135 0
136 -136 0
64 -141 0
64 -142 0
141 -141 0
142 -142 0
84 -147 0
84 -148 0
147 -147 0
148 -148 0
104 -153 0
104 -154 0
153 -153 0
154 -154 0
5 -123 0
5 -124 0
123 -123 0
124 -124 0
25 -129 0
25 -130 0
129 -129 0
130 -130 0
45 -135 0
45 -136 0
135 -135 0
136 -136 0
65 -141 0
65 -142 0
141 -141 0
142 -142 0
85 -147 0
85 -148 0
147 -147 0
148 -148 0
105 -153 0
105 -154 0
153 -153 0
154 -154 0
6 -123 0
6 -124 0
123 -123 0
124 -124 0
26 -129 0
26 -130 0
129 -129 0
130 -130 0
46 -135 0
46 -136 0
135 -135 0
136 -136 0
66 -141 0
66 -142 0
141 -141 0
142 -142 0
86 -147 0
86 -148 0
147 -147 0
148 -148 0
106 -153 0
106 -154 0
153 -153 0
154 -154 0
7 -123 0
7 -124 0
123 -123 0
124 -124 0
27 -129 0
27 -130 0
129 -129 0
130 -130 0
47 -135 0
47 -136 0
135 -135 0
136 -136 0
67 -141 0
67 -142 0
141 -141 0
142 -142 0
87 -147 0
87 -148 0
147 -147 0
148 -148 0
107 -153 0
107 -154 0
153 -153 0
154 -154 0
8 -123 0
8 -124 0
123 -123 0
124 -124 0
28 -129 0
28 -130 0
129 -129 0
130 -130 0
48 -135 0
48 -136 0
135 -135 0
136 -136 0
68 -141 0
68 -142 0
141 -141 0
142 -142 0
88 -147 0
88 -148 0
147 -147 0
148 -148 0
108 -153 0
108 -154 0
153 -153 0
154 -154 0
9 -123 0
9 -124 0
123 -123 0
124 -124 0
29 -129 0
29 -130 0
129 -129 0
130 -130 0
49 -135 0
49 -136 0
135 -135 0
136 -136 0
69 -141 0
69 -142 0
141 -141 0
142 -142 0
89 -147 0
89 -148 0
147 -147 0
148 -148 0
109 -153 0
109 -154 0
153 -153 0
154 -154 0
10 -123 0
10 -124 0
123 -123 0
124 -124 0
30 -129 0
30 -130 0
129 -129 0
130 -130 0
50 -135 0
50 -136 0
135 -135 0
136 -136 0
70 -141 0
70 -142 0
141 -141 0
142 -142 0
90 -147 0
90 -148 0
147 -147 0
148 -148 0
110 -153 0
110 -154 0
153 -153 0
154 -154 0
11 -123 0
11 -124 0
123 -123 0
124 -124 0
31 -129 0
31 -130 0
129 -129 0
130 -130 0
51 -135 0
51 -136 0
135 -135 0
136 -136 0
71 -141 0
71 -142 0
141 -141 0
142 -142 0
91 -147 0
91 -148 0
147 -147 0
148 -148 0
111 -153 0
111 -154 0
153 -153 0
154 -154 0
12 -123 0
12 -124 0
123 -123 0
124 -124 0
32 -129 0
32 -130 0
129 -129 0
130 -130 0
52 -135 0
52 -136 0
135 -135 0
136 -136 0
72 -141 0
72 -142 0
141 -141 0
142 -142 0
92 -147 0
92 -148 0
147 -147 0
148 -148 0
112 -153 0
112 -154 0
153 -153 0
154 -154 0
13 -123 0
13 -124 0
123 -123 0
124 -124 0
33 -129 0
33 -130 0
129 -129 0
130 -130 0
53 -135 0
53 -136 0
135 -135 0
136 -136 0
73 -141 0
73 -142 0
141 -141 0
142 -142 0
93 -147 0
93 -148 0
147 -147 0
148 -148 0
113 -153 0
113 -154 0
153 -153 0
154 -154 0
14 -123 0
14 -124 0
123 -123 0
124 -124 0
34 -129 0
34 -130 0
129 -129 0
130 -130 0
54 -135 0
54 -136 0
135 -135 0
136 -136 0
74 -141 0
74 -142 0
141 -141 0
142 -142 0
94 -147 0
94 -148 0
147 -147 0
148 -148 0
114 -153 0
114 -154 0
153 -153 0
154 -154 0
15 -123 0
15 -124 0
123 -123 0
124 -124 0
35 -129 0
35 -130 0
129 -129 0
130 -130 0
55 -135 0
55 -136 0
135 -135 0
136 -136 0
75 -141 0
75 -142 0
141 -141 0
142 -142 0
95 -147 0
95 -148 0
147 -147 0
148 -148 0
115 -153 0
115 -154 0
153 -153 0
154 -154 0
16 -123 0
16 -124 0
123 -123 0
124 -124 0
36 -129 0
36 -130 0
129 -129 0
130 -130 0
56 -135 0
56 -136 0
135 -135 0
136 -136 0
76 -141 0
76 -142 0
141 -141 0
142 -142 0
96 -147 0
96 -148 0
147 -147 0
148 -148 0
116 -153 0
116 -154 0
153 -153 0
154 -154 0
-17 -123 0
-17 -124 0
123 -123 0
124 -124 0
-37 -129 0
-37 -130 0
129 -129 0
130 -130 0
-57 -135 0
-57 -136 0
135 -135 0
136 -136 0
-77 -141 0
-77 -142 0
141 -141 0
142 -142 0
-97 -147 0
-97 -148 0
147 -147 0
148 -148 0
-117 -153 0
-117 -154 0
153 -153 0
154 -154 0
18 -123 0
18 -124 0
123 -123 0
124 -124 0
38 -129 0
38 -130 0
129 -129 0
130 -130 0
58 -135 0
58 -136 0
135 -135 0
136 -136 0
78 -141 0
78 -142 0
141 -141 0
142 -142 0
98 -147 0
98 -148 0
147 -147 0
148 -148 0
118 -153 0
118 -154 0
153 -153 0
154 -154 0
19 -123 0
19 -124 0
123 -123 0
124 -124 0
39 -129 0
39 -130 0
129 -129 0
130 -130 0
59 -135 0
59 -136 0
135 -135 0
136 -136 0
79 -141 0
79 -142 0
141 -141 0
142 -142 0
99 -147 0
99 -148 0
147 -147 0
148 -148 0
119 -153 0
119 -154 0
153 -153 0
154 -154 0
-20 -123 0
-20 -124 0
123 -123 0
124 -124 0
-40 -129 0
-40 -130 0
129 -129 0
130 -130 0
-60 -135 0
-60 -136 0
135 -135 0
136 -136 0
-80 -141 0
-80 -142 0
141 -141 0
142 -142 0
-100 -147 0
-100 -148 0
147 -147 0
148 -148 0
-120 -153 0
-120 -154 0
153 -153 0
154 -154 0
-219 123 0
219 -123 0
-220 124 0
219 -124 0
-219 -123 0
-220 -124 0
-225 123 219 0
225 -123 0
225 -219 0
-226 124 220 0
226 -124 0
226 -220 0
-225 -129 0
-226 -130 0
-231 129 225 0
231 -129 0
231 -225 0
-232 130 226 0
232 -130 0
232 -226 0
-231 -135 0
-232 -136 0
-237 135 231 0
237 -135 0
237 -231 0
-238 136 232 0
238 -136 0
238 -232 0
-237 -141 0
-238 -142 0
-243 141 237 0
243 -141 0
243 -237 0
-244 142 238 0
244 -142 0
244 -238 0
-243 -147 0
-244 -148 0
-249 147 243 0
249 -147 0
249 -243 0
-250 148 244 0
250 -148 0
250 -244 0
-249 -153 0
-250 -154 0
249 0
250 0
1 -125 0
1 -126 0
125 -125 0
126 -126 0
21 -131 0
21 -132 0
131 -131 0
132 -132 0
41 -137 0
41 -138 0
137 -137 0
138 -138 0
61 -143 0
61 -144 0
143 -143 0
144 -144 0
81 -149 0
81 -150 0
149 -149 0
150 -150 0
101 -155 0
101 -156 0
155 -155 0
156 -156 0
2 -161 -125 0
-2 161 -125 0
2 161 -126 0
-2 -161 -126 0
22 -161 -131 0
-22 161 -131 0
22 161 -132 0
-22 -161 -132 0
42 -161 -137 0
-42 161 -137 0
42 161 -138 0
-42 -161 -138 0
62 -161 -143 0
-62 161 -143 0
62 161 -144 0
-62 -161 -144 0
82 -161 -149 0
-82 161 -149 0
82 161 -150 0
-82 -161 -150 0
102 -161 -155 0
-102 161 -155 0
102 161 -156 0
-102 -161 -156 0
3 -125 0
3 -126 0
125 -125 0
126 -126 0
23 -131 0
23 -132 0
131 -131 0
132 -132 0
43 -137 0
43 -138 0
137 -137 0
138 -138 0
63 -143 0
63 -144 0
143 -143 0
144 -144 0
83 -149 0
83 -150 0
149 -149 0
150 -150 0
103 -155 0
103 -156 0
155 -155 0
156 -156 0
4 -162 -125 0
-4 162 -125 0
4 162 -126 0
-4 -162 -126 0
24 -162 -131 0
-24 162 -131 0
24 162 -132 0
-24 -162 -132 0
44 -162 -137 0
-44 162 -137 0
44 162 -138 0
-44 -162 -138 0
64 -162 -143 0
-64 162 -143 0
64 162 -144 0
-64 -162 -144 0
84 -162 -149 0
-84 162 -149 0
84 162 -150 0
-84 -162 -150 0
104 -162 -155 0
-104 162 -155 0
104 162 -156 0
-104 -162 -156 0
5 -125 0
5 -126 0
125 -125 0
126 -126 0
25 -131 0
25 -132 0
131 -131 0
132 -132 0
45 -137 0
45 -138 0
137 -137 0
138 -138 0
65 -143 0
65 -144 0
143 -143 0
144 -144 0
85 -149 0
85 -150 0
149 -149 0
150 -150 0
105 -155 0
105 -156 0
155 -155 0
156 -156 0
6 -125 0
6 -126 0
125 -125 0
126 -126 0
26 -131 0
26 -132 0
131 -131 0
132 -132 0
46 -137 0
46 -138 0
137 -137 0
138 -138 0
66 -143 0
66 -144 0
143 -143 0
144 -144 0
86 -149 0
86 -150 0
149 -149 0
150 -150 0
106 -155 0
106 -156 0
155 -155 0
156 -156 0
7 -125 0
7 -126 0
125 -125 0
126 -126 0
27 -131 0
27 -132 0
131 -131 0
132 -132 0
47 -137 0
47 -138 0
137 -137 0
138 -138 0
67 -143 0
67 -144 0
143 -143 0
144 -144 0
87 -149 0
87 -150 0
149 -149 0
150 -150 0
107 -155 0
107 -156 0
155 -155 0
156 -156 0
8 -125 0
8 -126 0
125 -125 0
126 -126 0
28 -131 0
28 -132 0
131 -131 0
132 -132 0
48 -137 0
48 -138 0
137 -137 0
138 -138 0
68 -143 0
68 -144 0
143 -143 0
144 -144 0
88 -149 0
88 -150 0
149 -149 0
150 -150 0
108 -155 0
108 -156 0
155 -155 0
156 -156 0
9 -125 0
9 -126 0
125 -125 0
126 -126 0
29 -131 0
29 -132 0
131 -131 0
132 -132 0
49 -137 0
49 -138 0
137 -137 0
138 -138 0
69 -143 0
69 -144 0
143 -143 0
144 -144 0
89 -149 0
89 -150 0
149 -149 0
150 -150 0
109 -155 0
109 -156 0
155 -155 0
156 -156 0
10 -163 -125 0
-10 163 -125 0
10 163 -126 0
-10 -163 -126 0
30 -163 -131 0
-30 163 -131 0
30 163 -132 0
-30 -163 -132 0
50 -163 -137 0
-50 163 -137 0
50 163 -138 0
-50 -163 -138 0
70 -163 -143 0
-70 163 -143 0
70 163 -144 0
-70 -163 -144 0
90 -163 -149 0
-90 163 -149 0
90 163 -150 0
-90 -163 -150 0
110 -163 -155 0
-110 163 -155 0
110 163 -156 0
-110 -163 -156 0
11 -164 -125 0
-11 164 -125 0
11 164 -126 0
-11 -164 -126 0
31 -164 -131 0
-31 164 -131 0
31 164 -132 0
-31 -164 -132 0
51 -164 -137 0
-51 164 -137 0
51 164 -138 0
-51 -164 -138 0
71 -164 -143 0
-71 164 -143 0
71 164 -144 0
-71 -164 -144 0
91 -164 -149 0
-91 164 -149 0
91 164 -150 0
-91 -164 -150 0
111 -164 -155 0
-111 164 -155 0
111 164 -156 0
-111 -164 -156 0
12 -125 0
12 -126 0
125 -125 0
126 -126 0
32 -131 0
32 -132 0
131 -131 0
132 -132 0
52 -137 0
52 -138 0
137 -137 0
138 -138 0
72 -143 0
72 -144 0
143 -143 0
144 -144 0
92 -149 0
92 -150 0
149 -149 0
150 -150 0
112 -155 0
112 -156 0
155 -155 0
156 -156 0
-13 -125 0
-13 -126 0
125 -125 0
126 -126 0
-33 -131 0
-33 -132 0
131 -131 0
132 -132 0
-53 -137 0
-53 -138 0
137 -137 0
138 -138 0
-73 -143 0
-73 -144 0
143 -143 0
144 -144 0
-93 -149 0
-93 -150 0
149 -149 0
150 -150 0
-113 -155 0
-113 -156 0
155 -155 0
156 -156 0
14 -125 0
14 -126 0
125 -125 0
126 -126 0
34 -131 0
34 -132 0
131 -131 0
132 -132 0
54 -137 0
54 -138 0
137 -137 0
138 -138 0
74 -143 0
74 -144 0
143 -143 0
144 -144 0
94 -149 0
94 -150 0
149 -149 0
150 -150 0
114 -155 0
114 -156 0
155 -155 0
156 -156 0
15 -125 0
15 -126 0
125 -125 0
126 -126 0
35 -131 0
35 -132 0
131 -131 0
132 -132 0
55 -137 0
55 -138 0
137 -137 0
138 -138 0
75 -143 0
75 -144 0
143 -143 0
144 -144 0
95 -149 0
95 -150 0
149 -149 0
150 -150 0
115 -155 0
115 -156 0
155 -155 0
156 -156 0
16 -125 0
16 -126 0
125 -125 0
126 -126 0
36 -131 0
36 -132 0
131 -131 0
132 -132 0
56 -137 0
56 -138 0
137 -137 0
138 -138 0
76 -143 0
76 -144 0
143 -143 0
144 -144 0
96 -149 0
96 -150 0
149 -149 0
150 -150 0
116 -155 0
116 -156 0
155 -155 0
156 -156 0
17 -125 0
17 -126 0
125 -125 0
126 -126 0
37 -131 0
37 -132 0
131 -131 0
132 -132 0
57 -137 0
57 -138 0
137 -137 0
138 -138 0
77 -143 0
77 -144 0
143 -143 0
144 -144 0
97 -149 0
97 -150 0
149 -149 0
150 -150 0
117 -155 0
117 -156 0
155 -155 0
156 -156 0
18 -165 -125 0
-18 165 -125 0
18 165 -126 0
-18 -165 -126 0
38 -165 -131 0
-38 165 -131 0
38 165 -132 0
-38 -165 -132 0
58 -165 -137 0
-58 165 -137 0
58 165 -138 0
-58 -165 -138 0
78 -165 -143 0
-78 165 -143 0
78 165 -144 0
-78 -165 -144 0
98 -165 -149 0
-98 165 -149 0
98 165 -150 0
-98 -165 -150 0
118 -165 -155 0
-118 165 -155 0
118 165 -156 0
-118 -165 -156 0
19 -125 0
19 -126 0
125 -125 0
126 -126 0
39 -131 0
39 -132 0
131 -131 0
132 -132 0
59 -137 0
59 -138 0
137 -137 0
138 -138 0
79 -143 0
79 -144 0
143 -143 0
144 -144 0
99 -149 0
99 -150 0
149 -149 0
150 -150 0
119 -155 0
119 -156 0
155 -155 0
156 -156 0
-20 -125 0
-20 -126 0
125 -125 0
126 -126 0
-40 -131 0
-40 -132 0
131 -131 0
132 -132 0
-60 -137 0
-60 -138 0
137 -137 0
138 -138 0
-80 -143 0
-80 -144 0
143 -143 0
144 -144 0
-100 -149 0
-100 -150 0
149 -149 0
150 -150 0
-120 -155 0
-120 -156 0
155 -155 0
156 -156 0
-221 125 0
221 -125 0
-222 126 0
221 -126 0
-221 -125 0
-222 -126 0
-227 125 221 0
227 -125 0
227 -221 0
-228 126 222 0
228 -126 0
228 -222 0
-227 -131 0
-228 -132 0
-233 131 227 0
233 -131 0
233 -227 0
-234 132 228 0
234 -132 0
234 -228 0
-233 -137 0
-234 -138 0
-239 137 233 0
239 -137 0
239 -233 0
-240 138 234 0
240 -138 0
240 -234 0
-239 -143 0
-240 -144 0
-245 143 239 0
245 -143 0
245 -239 0
-246 144 240 0
246 -144 0
246 -240 0
-245 -149 0
-246 -150 0
-251 149 245 0
251 -149 0
251 -245 0
-252 150 246 0
252 -150 0
252 -246 0
-251 -155 0
-252 -156 0
251 0
252 0
-121 128 134 140 146 152 0
-122 0
-127 134 140 146 152 0
-128 121 0
-133 140 146 152 0
-134 121 127 0
-139 146 152 0
-140 121 127 133 0
-145 152 0
-146 121 127 133 139 0
-151 0
-152 121 127 133 139 145 0
-123 130 136 142 148 154 0
-124 0
-129 136 142 148 154 0
-130 123 0
-135 142 148 154 0
-136 123 129 0
-141 148 154 0
-142 123 129 135 0
-147 154 0
-148 123 129 135 141 0
-153 0
-154 123 129 135 141 147 0
-125 132 138 144 150 156 0
-126 0
-131 138 144 150 156 0
-132 125 0
-137 144 150 156 0
-138 125 131 0
-143 150 156 0
-144 125 131 137 0
-149 156 0
-150 125 131 137 143 0
-155 0
-156 125 131 137 143 149 0
